(set-logic LIA)

( declare-const d Int )
( declare-const d! Int )
( declare-const e Int )
( declare-const e! Int )
( declare-const i Int )
( declare-const i! Int )
( declare-const s Int )
( declare-const s! Int )
( declare-const t Int )
( declare-const t! Int )
( declare-const tmp Int )
( declare-const tmp! Int )

( declare-const d_0 Int )
( declare-const d_1 Int )
( declare-const d_2 Int )
( declare-const d_3 Int )
( declare-const d_4 Int )
( declare-const e_0 Int )
( declare-const e_1 Int )
( declare-const e_2 Int )
( declare-const e_3 Int )
( declare-const e_4 Int )
( declare-const e_5 Int )
( declare-const i_0 Int )
( declare-const i_1 Int )
( declare-const i_2 Int )
( declare-const i_3 Int )
( declare-const i_4 Int )
( declare-const i_5 Int )
( declare-const i_6 Int )
( declare-const s_0 Int )
( declare-const s_1 Int )
( declare-const s_2 Int )
( declare-const s_3 Int )
( declare-const s_4 Int )
( declare-const t_0 Int )

( define-fun inv-f( ( d Int )( e Int )( i Int )( s Int )( t Int )( tmp Int ) ) Bool
SPLIT_HERE_asdfghjklzxcvbnmqwertyuiop
)

( define-fun pre-f ( ( d Int )( e Int )( i Int )( s Int )( t Int )( tmp Int )( d_0 Int )( d_1 Int )( d_2 Int )( d_3 Int )( d_4 Int )( e_0 Int )( e_1 Int )( e_2 Int )( e_3 Int )( e_4 Int )( e_5 Int )( i_0 Int )( i_1 Int )( i_2 Int )( i_3 Int )( i_4 Int )( i_5 Int )( i_6 Int )( s_0 Int )( s_1 Int )( s_2 Int )( s_3 Int )( s_4 Int )( t_0 Int ) ) Bool
	( and
		( = d d_0 )
		( = e e_0 )
		( = i i_0 )
		( = s s_0 )
		( = t t_0 )
		( = d_0 0 )
		( = s_0 0 )
		( = e_0 0 )
		( >= i_0 1 )
		( = t_0 i_0 )
	)
)

( define-fun trans-f ( ( d Int )( e Int )( i Int )( s Int )( t Int )( tmp Int )( d! Int )( e! Int )( i! Int )( s! Int )( t! Int )( tmp! Int )( d_0 Int )( d_1 Int )( d_2 Int )( d_3 Int )( d_4 Int )( e_0 Int )( e_1 Int )( e_2 Int )( e_3 Int )( e_4 Int )( e_5 Int )( i_0 Int )( i_1 Int )( i_2 Int )( i_3 Int )( i_4 Int )( i_5 Int )( i_6 Int )( s_0 Int )( s_1 Int )( s_2 Int )( s_3 Int )( s_4 Int )( t_0 Int ) ) Bool
	( or
		( and
			( = d_1 d )
			( = e_1 e )
			( = i_1 i )
			( = s_1 s )
			( = d_1 d! )
			( = e_1 e! )
			( = i_1 i! )
			( = s_1 s! )
			( = d d! )
			( = e e! )
			( = i i! )
			( = s s! )
			( = t t! )
			(= tmp tmp! )
		)
		( and
			( = d_1 d )
			( = e_1 e )
			( = i_1 i )
			( = s_1 s )
			( >= i_1 1 )
			( <= d_1 0 )
			( <= s_1 0 )
			( <= e_1 0 )
			( = e_2 ( + e_1 1 ) )
			( = i_2 ( - i_1 1 ) )
			( = d_2 d_1 )
			( = e_3 e_2 )
			( = i_3 i_2 )
			( = s_2 s_1 )
			( = d_2 d! )
			( = e_3 e! )
			( = i_3 i! )
			( = s_2 s! )
			(= t t_0 )
			(= t! t_0 )
			(= tmp tmp! )
		)
		( and
			( = d_1 d )
			( = e_1 e )
			( = i_1 i )
			( = s_1 s )
			( >= i_1 1 )
			( <= d_1 0 )
			( <= s_1 0 )
			( not ( <= e_1 0 ) )
			( >= i_1 1 )
			( >= d_1 1 )
			( = d_3 ( - d_1 1 ) )
			( = s_3 ( + s_1 2 ) )
			( = i_4 ( - i_1 1 ) )
			( = d_2 d_3 )
			( = e_3 e_1 )
			( = i_3 i_4 )
			( = s_2 s_3 )
			( = d_2 d! )
			( = e_3 e! )
			( = i_3 i! )
			( = s_2 s! )
			(= t t_0 )
			(= t! t_0 )
			(= tmp tmp! )
		)
		( and
			( = d_1 d )
			( = e_1 e )
			( = i_1 i )
			( = s_1 s )
			( >= i_1 1 )
			( <= d_1 0 )
			( <= s_1 0 )
			( not ( <= e_1 0 ) )
			( >= i_1 1 )
			( not ( >= d_1 1 ) )
			( >= i_1 1 )
			( = d_4 1 )
			( = s_4 0 )
			( = e_4 0 )
			( = i_5 ( - ( + ( + ( + i_1 e_4 ) d_4 ) s_4 ) 1 ) )
			( = d_2 d_4 )
			( = e_3 e_4 )
			( = i_3 i_5 )
			( = s_2 s_4 )
			( = d_2 d! )
			( = e_3 e! )
			( = i_3 i! )
			( = s_2 s! )
			(= t t_0 )
			(= t! t_0 )
			(= tmp tmp! )
		)
		( and
			( = d_1 d )
			( = e_1 e )
			( = i_1 i )
			( = s_1 s )
			( >= i_1 1 )
			( <= d_1 0 )
			( <= s_1 0 )
			( not ( <= e_1 0 ) )
			( >= i_1 1 )
			( not ( >= d_1 1 ) )
			( not ( >= i_1 1 ) )
			( = e_5 ( - e_1 1 ) )
			( = i_6 ( + i_1 1 ) )
			( = d_2 d_1 )
			( = e_3 e_5 )
			( = i_3 i_6 )
			( = s_2 s_1 )
			( = d_2 d! )
			( = e_3 e! )
			( = i_3 i! )
			( = s_2 s! )
			(= t t_0 )
			(= t! t_0 )
			(= tmp tmp! )
		)
		( and
			( = d_1 d )
			( = e_1 e )
			( = i_1 i )
			( = s_1 s )
			( >= i_1 1 )
			( <= d_1 0 )
			( <= s_1 0 )
			( not ( <= e_1 0 ) )
			( not ( >= i_1 1 ) )
			( >= i_1 1 )
			( = d_4 1 )
			( = s_4 0 )
			( = e_4 0 )
			( = i_5 ( - ( + ( + ( + i_1 e_4 ) d_4 ) s_4 ) 1 ) )
			( = d_2 d_4 )
			( = e_3 e_4 )
			( = i_3 i_5 )
			( = s_2 s_4 )
			( = d_2 d! )
			( = e_3 e! )
			( = i_3 i! )
			( = s_2 s! )
			(= t t_0 )
			(= t! t_0 )
			(= tmp tmp! )
		)
		( and
			( = d_1 d )
			( = e_1 e )
			( = i_1 i )
			( = s_1 s )
			( >= i_1 1 )
			( <= d_1 0 )
			( <= s_1 0 )
			( not ( <= e_1 0 ) )
			( not ( >= i_1 1 ) )
			( not ( >= i_1 1 ) )
			( = e_5 ( - e_1 1 ) )
			( = i_6 ( + i_1 1 ) )
			( = d_2 d_1 )
			( = e_3 e_5 )
			( = i_3 i_6 )
			( = s_2 s_1 )
			( = d_2 d! )
			( = e_3 e! )
			( = i_3 i! )
			( = s_2 s! )
			(= t t_0 )
			(= t! t_0 )
			(= tmp tmp! )
		)
		( and
			( = d_1 d )
			( = e_1 e )
			( = i_1 i )
			( = s_1 s )
			( >= i_1 1 )
			( <= d_1 0 )
			( not ( <= s_1 0 ) )
			( >= i_1 1 )
			( >= d_1 1 )
			( = d_3 ( - d_1 1 ) )
			( = s_3 ( + s_1 2 ) )
			( = i_4 ( - i_1 1 ) )
			( = d_2 d_3 )
			( = e_3 e_1 )
			( = i_3 i_4 )
			( = s_2 s_3 )
			( = d_2 d! )
			( = e_3 e! )
			( = i_3 i! )
			( = s_2 s! )
			(= t t_0 )
			(= t! t_0 )
			(= tmp tmp! )
		)
		( and
			( = d_1 d )
			( = e_1 e )
			( = i_1 i )
			( = s_1 s )
			( >= i_1 1 )
			( <= d_1 0 )
			( not ( <= s_1 0 ) )
			( >= i_1 1 )
			( not ( >= d_1 1 ) )
			( >= i_1 1 )
			( = d_4 1 )
			( = s_4 0 )
			( = e_4 0 )
			( = i_5 ( - ( + ( + ( + i_1 e_4 ) d_4 ) s_4 ) 1 ) )
			( = d_2 d_4 )
			( = e_3 e_4 )
			( = i_3 i_5 )
			( = s_2 s_4 )
			( = d_2 d! )
			( = e_3 e! )
			( = i_3 i! )
			( = s_2 s! )
			(= t t_0 )
			(= t! t_0 )
			(= tmp tmp! )
		)
		( and
			( = d_1 d )
			( = e_1 e )
			( = i_1 i )
			( = s_1 s )
			( >= i_1 1 )
			( <= d_1 0 )
			( not ( <= s_1 0 ) )
			( >= i_1 1 )
			( not ( >= d_1 1 ) )
			( not ( >= i_1 1 ) )
			( = e_5 ( - e_1 1 ) )
			( = i_6 ( + i_1 1 ) )
			( = d_2 d_1 )
			( = e_3 e_5 )
			( = i_3 i_6 )
			( = s_2 s_1 )
			( = d_2 d! )
			( = e_3 e! )
			( = i_3 i! )
			( = s_2 s! )
			(= t t_0 )
			(= t! t_0 )
			(= tmp tmp! )
		)
		( and
			( = d_1 d )
			( = e_1 e )
			( = i_1 i )
			( = s_1 s )
			( >= i_1 1 )
			( <= d_1 0 )
			( not ( <= s_1 0 ) )
			( not ( >= i_1 1 ) )
			( >= i_1 1 )
			( = d_4 1 )
			( = s_4 0 )
			( = e_4 0 )
			( = i_5 ( - ( + ( + ( + i_1 e_4 ) d_4 ) s_4 ) 1 ) )
			( = d_2 d_4 )
			( = e_3 e_4 )
			( = i_3 i_5 )
			( = s_2 s_4 )
			( = d_2 d! )
			( = e_3 e! )
			( = i_3 i! )
			( = s_2 s! )
			(= t t_0 )
			(= t! t_0 )
			(= tmp tmp! )
		)
		( and
			( = d_1 d )
			( = e_1 e )
			( = i_1 i )
			( = s_1 s )
			( >= i_1 1 )
			( <= d_1 0 )
			( not ( <= s_1 0 ) )
			( not ( >= i_1 1 ) )
			( not ( >= i_1 1 ) )
			( = e_5 ( - e_1 1 ) )
			( = i_6 ( + i_1 1 ) )
			( = d_2 d_1 )
			( = e_3 e_5 )
			( = i_3 i_6 )
			( = s_2 s_1 )
			( = d_2 d! )
			( = e_3 e! )
			( = i_3 i! )
			( = s_2 s! )
			(= t t_0 )
			(= t! t_0 )
			(= tmp tmp! )
		)
		( and
			( = d_1 d )
			( = e_1 e )
			( = i_1 i )
			( = s_1 s )
			( >= i_1 1 )
			( not ( <= d_1 0 ) )
			( >= i_1 1 )
			( >= d_1 1 )
			( = d_3 ( - d_1 1 ) )
			( = s_3 ( + s_1 2 ) )
			( = i_4 ( - i_1 1 ) )
			( = d_2 d_3 )
			( = e_3 e_1 )
			( = i_3 i_4 )
			( = s_2 s_3 )
			( = d_2 d! )
			( = e_3 e! )
			( = i_3 i! )
			( = s_2 s! )
			(= t t_0 )
			(= t! t_0 )
			(= tmp tmp! )
		)
		( and
			( = d_1 d )
			( = e_1 e )
			( = i_1 i )
			( = s_1 s )
			( >= i_1 1 )
			( not ( <= d_1 0 ) )
			( >= i_1 1 )
			( not ( >= d_1 1 ) )
			( >= i_1 1 )
			( = d_4 1 )
			( = s_4 0 )
			( = e_4 0 )
			( = i_5 ( - ( + ( + ( + i_1 e_4 ) d_4 ) s_4 ) 1 ) )
			( = d_2 d_4 )
			( = e_3 e_4 )
			( = i_3 i_5 )
			( = s_2 s_4 )
			( = d_2 d! )
			( = e_3 e! )
			( = i_3 i! )
			( = s_2 s! )
			(= t t_0 )
			(= t! t_0 )
			(= tmp tmp! )
		)
		( and
			( = d_1 d )
			( = e_1 e )
			( = i_1 i )
			( = s_1 s )
			( >= i_1 1 )
			( not ( <= d_1 0 ) )
			( >= i_1 1 )
			( not ( >= d_1 1 ) )
			( not ( >= i_1 1 ) )
			( = e_5 ( - e_1 1 ) )
			( = i_6 ( + i_1 1 ) )
			( = d_2 d_1 )
			( = e_3 e_5 )
			( = i_3 i_6 )
			( = s_2 s_1 )
			( = d_2 d! )
			( = e_3 e! )
			( = i_3 i! )
			( = s_2 s! )
			(= t t_0 )
			(= t! t_0 )
			(= tmp tmp! )
		)
		( and
			( = d_1 d )
			( = e_1 e )
			( = i_1 i )
			( = s_1 s )
			( >= i_1 1 )
			( not ( <= d_1 0 ) )
			( not ( >= i_1 1 ) )
			( >= i_1 1 )
			( = d_4 1 )
			( = s_4 0 )
			( = e_4 0 )
			( = i_5 ( - ( + ( + ( + i_1 e_4 ) d_4 ) s_4 ) 1 ) )
			( = d_2 d_4 )
			( = e_3 e_4 )
			( = i_3 i_5 )
			( = s_2 s_4 )
			( = d_2 d! )
			( = e_3 e! )
			( = i_3 i! )
			( = s_2 s! )
			(= t t_0 )
			(= t! t_0 )
			(= tmp tmp! )
		)
		( and
			( = d_1 d )
			( = e_1 e )
			( = i_1 i )
			( = s_1 s )
			( >= i_1 1 )
			( not ( <= d_1 0 ) )
			( not ( >= i_1 1 ) )
			( not ( >= i_1 1 ) )
			( = e_5 ( - e_1 1 ) )
			( = i_6 ( + i_1 1 ) )
			( = d_2 d_1 )
			( = e_3 e_5 )
			( = i_3 i_6 )
			( = s_2 s_1 )
			( = d_2 d! )
			( = e_3 e! )
			( = i_3 i! )
			( = s_2 s! )
			(= t t_0 )
			(= t! t_0 )
			(= tmp tmp! )
		)
		( and
			( = d_1 d )
			( = e_1 e )
			( = i_1 i )
			( = s_1 s )
			( not ( >= i_1 1 ) )
			( >= i_1 1 )
			( >= d_1 1 )
			( = d_3 ( - d_1 1 ) )
			( = s_3 ( + s_1 2 ) )
			( = i_4 ( - i_1 1 ) )
			( = d_2 d_3 )
			( = e_3 e_1 )
			( = i_3 i_4 )
			( = s_2 s_3 )
			( = d_2 d! )
			( = e_3 e! )
			( = i_3 i! )
			( = s_2 s! )
			(= t t_0 )
			(= t! t_0 )
			(= tmp tmp! )
		)
		( and
			( = d_1 d )
			( = e_1 e )
			( = i_1 i )
			( = s_1 s )
			( not ( >= i_1 1 ) )
			( >= i_1 1 )
			( not ( >= d_1 1 ) )
			( >= i_1 1 )
			( = d_4 1 )
			( = s_4 0 )
			( = e_4 0 )
			( = i_5 ( - ( + ( + ( + i_1 e_4 ) d_4 ) s_4 ) 1 ) )
			( = d_2 d_4 )
			( = e_3 e_4 )
			( = i_3 i_5 )
			( = s_2 s_4 )
			( = d_2 d! )
			( = e_3 e! )
			( = i_3 i! )
			( = s_2 s! )
			(= t t_0 )
			(= t! t_0 )
			(= tmp tmp! )
		)
		( and
			( = d_1 d )
			( = e_1 e )
			( = i_1 i )
			( = s_1 s )
			( not ( >= i_1 1 ) )
			( >= i_1 1 )
			( not ( >= d_1 1 ) )
			( not ( >= i_1 1 ) )
			( = e_5 ( - e_1 1 ) )
			( = i_6 ( + i_1 1 ) )
			( = d_2 d_1 )
			( = e_3 e_5 )
			( = i_3 i_6 )
			( = s_2 s_1 )
			( = d_2 d! )
			( = e_3 e! )
			( = i_3 i! )
			( = s_2 s! )
			(= t t_0 )
			(= t! t_0 )
			(= tmp tmp! )
		)
		( and
			( = d_1 d )
			( = e_1 e )
			( = i_1 i )
			( = s_1 s )
			( not ( >= i_1 1 ) )
			( not ( >= i_1 1 ) )
			( >= i_1 1 )
			( = d_4 1 )
			( = s_4 0 )
			( = e_4 0 )
			( = i_5 ( - ( + ( + ( + i_1 e_4 ) d_4 ) s_4 ) 1 ) )
			( = d_2 d_4 )
			( = e_3 e_4 )
			( = i_3 i_5 )
			( = s_2 s_4 )
			( = d_2 d! )
			( = e_3 e! )
			( = i_3 i! )
			( = s_2 s! )
			(= t t_0 )
			(= t! t_0 )
			(= tmp tmp! )
		)
		( and
			( = d_1 d )
			( = e_1 e )
			( = i_1 i )
			( = s_1 s )
			( not ( >= i_1 1 ) )
			( not ( >= i_1 1 ) )
			( not ( >= i_1 1 ) )
			( = e_5 ( - e_1 1 ) )
			( = i_6 ( + i_1 1 ) )
			( = d_2 d_1 )
			( = e_3 e_5 )
			( = i_3 i_6 )
			( = s_2 s_1 )
			( = d_2 d! )
			( = e_3 e! )
			( = i_3 i! )
			( = s_2 s! )
			(= t t_0 )
			(= t! t_0 )
			(= tmp tmp! )
		)
	)
)

( define-fun post-f ( ( d Int )( e Int )( i Int )( s Int )( t Int )( tmp Int )( d_0 Int )( d_1 Int )( d_2 Int )( d_3 Int )( d_4 Int )( e_0 Int )( e_1 Int )( e_2 Int )( e_3 Int )( e_4 Int )( e_5 Int )( i_0 Int )( i_1 Int )( i_2 Int )( i_3 Int )( i_4 Int )( i_5 Int )( i_6 Int )( s_0 Int )( s_1 Int )( s_2 Int )( s_3 Int )( s_4 Int )( t_0 Int ) ) Bool
	( or
		( not
			( and
				( = d d_1)
				( = e e_1)
				( = i i_1)
				( = s s_1)
				( = t t_0)
			)
		)
		( not
			( and
				( not ( = t_0 ( + ( + ( + d_1 s_1 ) e_1 ) i_1 ) ) )
			)
		)
	)
)
SPLIT_HERE_asdfghjklzxcvbnmqwertyuiop
( assert ( not
	( =>
		( pre-f d e i s t tmp d_0 d_1 d_2 d_3 d_4 e_0 e_1 e_2 e_3 e_4 e_5 i_0 i_1 i_2 i_3 i_4 i_5 i_6 s_0 s_1 s_2 s_3 s_4 t_0  )
		( inv-f d e i s t tmp )
	)
))

SPLIT_HERE_asdfghjklzxcvbnmqwertyuiop
( assert ( not
	( =>
		( and
			( inv-f d e i s t tmp )
			( trans-f d e i s t tmp d! e! i! s! t! tmp! d_0 d_1 d_2 d_3 d_4 e_0 e_1 e_2 e_3 e_4 e_5 i_0 i_1 i_2 i_3 i_4 i_5 i_6 s_0 s_1 s_2 s_3 s_4 t_0 )
		)
		( inv-f d! e! i! s! t! tmp! )
	)
))

SPLIT_HERE_asdfghjklzxcvbnmqwertyuiop
( assert ( not
	( =>
		( inv-f d e i s t tmp  )
		( post-f d e i s t tmp d_0 d_1 d_2 d_3 d_4 e_0 e_1 e_2 e_3 e_4 e_5 i_0 i_1 i_2 i_3 i_4 i_5 i_6 s_0 s_1 s_2 s_3 s_4 t_0 )
	)
))

